c graph1
p edge 10 38
e 1 8
e 2 6
e 3 9
e 4 2
e 5 7
e 6 1
e 7 9
e 8 5
e 9 6
e 10 4
e 2 3
e 4 8
e 3 6
e 9 1
e 5 10
e 7 6
e 7 3
e 10 8
e 1 7
e 5 6
e 8 3
e 4 5
e 8 6
e 8 9
e 3 1
e 5 1
e 10 7
e 9 4
e 6 4
e 4 7
e 3 4
e 9 2
e 10 9
e 2 7
e 4 1
e 5 3
e 1 10
e 8 2
